NAME: random-94-7212
TYPE: TSP
COMMENT: size=94 seed=7212
DIMENSION: 190
EDGE_WEIGHT_TYPE: EUC_2D
NODE_COORD_SECTION
+0 84 432
-0 84 432
+1 386 51
-1 995 71
+2 23 881
-2 325 318
+3 480 801
-3 149 96
+4 844 963
-4 125 890
+5 766 237
-5 499 914
+6 726 196
-6 27 684
+7 992 788
-7 9 200
+8 420 330
-8 444 747
+9 934 203
-9 639 854
+10 697 822
-10 799 81
+11 214 912
-11 251 432
+12 126 575
-12 243 521
+13 138 774
-13 239 480
+14 612 521
-14 981 344
+15 36 406
-15 607 988
+16 407 222
-16 531 358
+17 91 239
-17 859 782
+18 914 26
-18 840 765
+19 814 65
-19 776 390
+20 790 40
-20 590 857
+21 737 960
-21 337 191
+22 36 200
-22 249 853
+23 503 437
-23 263 645
+24 555 448
-24 382 763
+25 87 186
-25 715 494
+26 168 962
-26 982 178
+27 790 683
-27 278 760
+28 587 419
-28 238 592
+29 760 90
-29 578 164
+30 688 24
-30 341 107
+31 869 223
-31 648 50
+32 584 314
-32 492 186
+33 36 913
-33 650 40
+34 552 536
-34 854 606
+35 95 342
-35 986 88
+36 715 124
-36 446 70
+37 774 891
-37 202 419
+38 664 948
-38 854 190
+39 557 808
-39 359 935
+40 887 180
-40 227 385
+41 468 134
-41 115 400
+42 641 735
-42 850 139
+43 348 113
-43 664 882
+44 825 530
-44 820 663
+45 180 137
-45 66 75
+46 111 476
-46 205 535
+47 535 464
-47 22 960
+48 310 268
-48 703 757
+49 837 71
-49 252 515
+50 432 132
-50 423 651
+51 771 138
-51 967 626
+52 813 869
-52 363 277
+53 969 6
-53 301 565
+54 518 459
-54 529 861
+55 690 474
-55 313 422
+56 789 746
-56 983 226
+57 839 142
-57 996 274
+58 394 667
-58 251 923
+59 846 428
-59 697 11
+60 181 823
-60 223 673
+61 605 749
-61 677 667
+62 879 257
-62 340 374
+63 977 849
-63 265 224
+64 502 496
-64 12 264
+65 364 828
-65 301 77
+66 978 896
-66 774 740
+67 396 352
-67 902 349
+68 683 445
-68 391 508
+69 882 757
-69 838 802
+70 406 937
-70 647 87
+71 128 355
-71 928 243
+72 38 263
-72 130 709
+73 361 858
-73 216 433
+74 322 945
-74 367 355
+75 649 278
-75 844 96
+76 471 970
-76 301 967
+77 983 14
-77 7 478
+78 966 832
-78 817 749
+79 627 330
-79 636 827
+80 973 539
-80 333 779
+81 168 827
-81 269 837
+82 380 427
-82 566 586
+83 326 814
-83 392 741
+84 790 612
-84 78 107
+85 692 341
-85 678 414
+86 578 445
-86 666 652
+87 27 644
-87 293 625
+88 710 871
-88 290 268
+89 380 107
-89 366 990
+90 296 395
-90 285 177
+91 942 511
-91 830 616
+92 727 594
-92 41 794
+93 452 747
-93 623 902
+94 784 757
-94 288 597
PRECEDENCE_SECTION
+0 -0
+1 -1
+2 -2
+3 -3
+4 -4
+5 -5
+6 -6
+7 -7
+8 -8
+9 -9
+10 -10
+11 -11
+12 -12
+13 -13
+14 -14
+15 -15
+16 -16
+17 -17
+18 -18
+19 -19
+20 -20
+21 -21
+22 -22
+23 -23
+24 -24
+25 -25
+26 -26
+27 -27
+28 -28
+29 -29
+30 -30
+31 -31
+32 -32
+33 -33
+34 -34
+35 -35
+36 -36
+37 -37
+38 -38
+39 -39
+40 -40
+41 -41
+42 -42
+43 -43
+44 -44
+45 -45
+46 -46
+47 -47
+48 -48
+49 -49
+50 -50
+51 -51
+52 -52
+53 -53
+54 -54
+55 -55
+56 -56
+57 -57
+58 -58
+59 -59
+60 -60
+61 -61
+62 -62
+63 -63
+64 -64
+65 -65
+66 -66
+67 -67
+68 -68
+69 -69
+70 -70
+71 -71
+72 -72
+73 -73
+74 -74
+75 -75
+76 -76
+77 -77
+78 -78
+79 -79
+80 -80
+81 -81
+82 -82
+83 -83
+84 -84
+85 -85
+86 -86
+87 -87
+88 -88
+89 -89
+90 -90
+91 -91
+92 -92
+93 -93
+94 -94
EOF
